benchmark_instances/dzn_benchmark_instances/benchmark_instance_10-5.dzn
% Input: sequence of points
seq_points = [|3,1
              |5,1
              |8,1
              |9,1
              |7,2
              |8,2
              |1,3
              |5,3
              |6,3
              |8,3
              |9,3
              |1,5
              |6,5
              |7,5
              |2,6
              |3,6
              |5,6
              |7,6
              |3,7
              |6,7
              |9,7
              |1,8
              |2,8
              |4,8
              |6,8
              |8,8
              |9,8
              |1,9
              |2,9
              |3,9
              |4,9
              |7,9
              |8,9
              |3,0
              |5,0
              |10,0
              |10,7
              |2,10
              |3,10
              |8,10
              |0,3
              |0,5
              |0,10
              |0,0
             |];

num_points = 44;
