benchmark_instances/lp_benchmark_instances/benchmark_instance_10-5.lp
% Input: sequence of points
point(3,1).
point(5,1).
point(8,1).
point(9,1).
point(7,2).
point(8,2).
point(1,3).
point(5,3).
point(6,3).
point(8,3).
point(9,3).
point(1,5).
point(6,5).
point(7,5).
point(2,6).
point(3,6).
point(5,6).
point(7,6).
point(3,7).
point(6,7).
point(9,7).
point(1,8).
point(2,8).
point(4,8).
point(6,8).
point(8,8).
point(9,8).
point(1,9).
point(2,9).
point(3,9).
point(4,9).
point(7,9).
point(8,9).
point(3,0).
point(5,0).
point(10,0).
point(10,7).
point(2,10).
point(3,10).
point(8,10).
point(0,3).
point(0,5).
point(0,10).
point(0,0).
